(set-logic ALL)
(set-option :produce-models true)
(declare-sort BoundSet 0)
(declare-sort UnboundSet 0)
(declare-fun IsWearing (BoundSet BoundSet) Bool)
(declare-fun IsSpeakingInto (BoundSet BoundSet) Bool)
(declare-fun IsWriting (BoundSet) Bool)
(declare-fun IsBeside (BoundSet BoundSet) Bool)
(assert (not (=> (exists ((a BoundSet)) (exists ((e BoundSet)) (exists ((c BoundSet)) (exists ((b BoundSet)) (exists ((d BoundSet)) (and (IsWearing b a) (and (IsWearing c a) (and (IsSpeakingInto d a) (and (IsWriting e) (IsBeside a e)))))))))) (exists ((a BoundSet)) (exists ((f BoundSet)) (IsSpeakingInto f a))))))
(check-sat)
(get-model)